<number of tasks>
100

<cycle time>
1000

<order strength>
0.597


<task times>
1 559
2 374
3 518
4 404
5 496
6 591
7 672
8 479
9 558
10 240
11 478
12 533
13 321
14 519
15 448
16 594
17 356
18 408
19 368
20 415
21 570
22 871
23 543
24 596
25 781
26 503
27 554
28 282
29 490
30 424
31 519
32 448
33 512
34 646
35 517
36 472
37 417
38 482
39 265
40 514
41 795
42 543
43 556
44 516
45 484
46 502
47 423
48 592
49 624
50 554
51 482
52 707
53 300
54 369
55 719
56 424
57 872
58 559
59 546
60 195
61 594
62 508
63 653
64 561
65 582
66 550
67 669
68 493
69 648
70 403
71 562
72 457
73 497
74 563
75 219
76 337
77 358
78 393
79 501
80 514
81 540
82 449
83 460
84 249
85 382
86 398
87 370
88 592
89 481
90 408
91 484
92 555
93 461
94 463
95 456
96 421
97 677
98 583
99 453
100 487

<precedence relations>
1,5
1,6
1,8
2,7
2,12
2,13
2,14
3,8
4,8
5,9
6,10
7,11
8,12
8,13
8,14
9,17
10,15
11,19
12,16
12,17
12,18
12,19
12,20
12,21
13,16
13,17
13,18
13,19
13,21
14,16
14,17
15,24
16,22
16,40
16,41
17,26
18,23
18,26
18,27
19,26
19,27
20,25
20,26
20,27
21,26
21,27
22,28
23,31
24,30
25,32
26,29
26,33
26,38
26,39
27,33
27,34
28,38
29,35
30,36
31,37
32,38
33,41
33,60
34,38
34,39
34,40
34,41
35,42
36,45
37,43
38,44
38,45
38,46
38,47
38,48
39,45
39,46
40,47
41,46
42,49
43,50
44,52
45,51
45,66
46,55
46,59
46,61
46,63
46,64
47,53
47,67
48,53
48,54
49,56
50,59
51,57
52,60
53,58
53,60
53,61
54,66
54,96
55,65
56,63
57,64
58,62
59,67
59,77
60,63
60,65
61,65
61,66
62,68
63,70
64,70
65,69
65,70
66,98
67,85
67,92
68,72
69,73
70,71
70,74
70,75
70,76
70,77
71,80
72,81
73,82
74,78
74,84
75,79
75,83
75,91
76,84
76,85
77,82
78,86
79,87
80,88
81,89
82,91
82,92
84,90
84,92
84,94
85,93
86,96
87,97
88,98
89,95
90,96
91,98
92,98
92,99
93,96
95,100

<end>
